p cnf 934
-13 -293
-14 -296
-15 -299
-16 -302
-17 -305
-18 -308
-19 -311
-20 -314
-21 -317
-22 -320
-23 -323
-24 -326
-25 327
-26 328
-27 329
-28 330
-29 331
-30 332
-31 333
-32 334
-33 335
-34 -14
-34 -15
14 15 34
-35 -16
-35 -17
16 17 35
-36 -18
-36 -19
18 19 36
-37 -20
-37 -21
20 21 37
-38 -22
-38 -23
22 23 38
-39 -24
-39 -25
24 25 39
-40 -26
-40 -27
26 27 40
-41 -28
-41 -29
28 29 41
-42 -30
-42 -31
30 31 42
-43 -32
-43 -33
32 33 43
-44 34
-44 35
-34 -35 44
-45 36
-45 37
-36 -37 45
-46 38
-46 39
-38 -39 46
-47 40
-47 41
-40 -41 47
-48 42
-48 43
-42 -43 48
-49 44
-49 45
-44 -45 49
-50 46
-50 47
-46 -47 50
-51 49
-51 50
-49 -50 51
-52 48
-52 51
-48 -51 52
-53 -13
-53 14
13 -14 53
-54 13
-54 -14
-13 14 54
-55 -53
-55 -54
53 54 55
-56 13
-56 14
-13 -14 56
-57 -13
-57 -55
13 55 57
-58 13
-58 55
-13 -55 58
-59 -57
-59 -58
57 58 59
-60 13
-60 -55
-13 55 60
-61 -56
-61 -60
56 60 61
-62 -14
-62 15
14 -15 62
-63 14
-63 -15
-14 15 63
-64 -62
-64 -63
62 63 64
-65 14
-65 15
-14 -15 65
-66 61
-66 -64
-61 64 66
-67 -61
-67 64
61 -64 67
-68 -66
-68 -67
66 67 68
-69 -61
-69 -64
61 64 69
-70 -65
-70 -69
65 69 70
-71 -15
-71 16
15 -16 71
-72 15
-72 -16
-15 16 72
-73 -71
-73 -72
71 72 73
-74 15
-74 16
-15 -16 74
-75 70
-75 -73
-70 73 75
-76 -70
-76 73
70 -73 76
-77 -75
-77 -76
75 76 77
-78 -70
-78 -73
70 73 78
-79 -74
-79 -78
74 78 79
-80 -16
-80 17
16 -17 80
-81 16
-81 -17
-16 17 81
-82 -80
-82 -81
80 81 82
-83 16
-83 17
-16 -17 83
-84 79
-84 -82
-79 82 84
-85 -79
-85 82
79 -82 85
-86 -84
-86 -85
84 85 86
-87 -79
-87 -82
79 82 87
-88 -83
-88 -87
83 87 88
-89 -17
-89 18
17 -18 89
-90 17
-90 -18
-17 18 90
-91 -89
-91 -90
89 90 91
-92 17
-92 18
-17 -18 92
-93 88
-93 -91
-88 91 93
-94 -88
-94 91
88 -91 94
-95 -93
-95 -94
93 94 95
-96 -88
-96 -91
88 91 96
-97 -92
-97 -96
92 96 97
-98 -18
-98 19
18 -19 98
-99 18
-99 -19
-18 19 99
-100 -98
-100 -99
98 99 100
-101 18
-101 19
-18 -19 101
-102 97
-102 -100
-97 100 102
-103 -97
-103 100
97 -100 103
-104 -102
-104 -103
102 103 104
-105 -97
-105 -100
97 100 105
-106 -101
-106 -105
101 105 106
-107 -19
-107 20
19 -20 107
-108 19
-108 -20
-19 20 108
-109 -107
-109 -108
107 108 109
-110 19
-110 20
-19 -20 110
-111 106
-111 -109
-106 109 111
-112 -106
-112 109
106 -109 112
-113 -111
-113 -112
111 112 113
-114 -106
-114 -109
106 109 114
-115 -110
-115 -114
110 114 115
-116 -20
-116 21
20 -21 116
-117 20
-117 -21
-20 21 117
-118 -116
-118 -117
116 117 118
-119 20
-119 21
-20 -21 119
-120 115
-120 -118
-115 118 120
-121 -115
-121 118
115 -118 121
-122 -120
-122 -121
120 121 122
-123 -115
-123 -118
115 118 123
-124 -119
-124 -123
119 123 124
-125 -21
-125 22
21 -22 125
-126 21
-126 -22
-21 22 126
-127 -125
-127 -126
125 126 127
-128 21
-128 22
-21 -22 128
-129 124
-129 -127
-124 127 129
-130 -124
-130 127
124 -127 130
-131 -129
-131 -130
129 130 131
-132 -124
-132 -127
124 127 132
-133 -128
-133 -132
128 132 133
-134 -22
-134 23
22 -23 134
-135 22
-135 -23
-22 23 135
-136 -134
-136 -135
134 135 136
-137 22
-137 23
-22 -23 137
-138 133
-138 -136
-133 136 138
-139 -133
-139 136
133 -136 139
-140 -138
-140 -139
138 139 140
-141 -133
-141 -136
133 136 141
-142 -137
-142 -141
137 141 142
-143 -23
-143 24
23 -24 143
-144 23
-144 -24
-23 24 144
-145 -143
-145 -144
143 144 145
-146 23
-146 24
-23 -24 146
-147 142
-147 -145
-142 145 147
-148 -142
-148 145
142 -145 148
-149 -147
-149 -148
147 148 149
-150 -142
-150 -145
142 145 150
-151 -146
-151 -150
146 150 151
-152 -24
-152 25
24 -25 152
-153 24
-153 -25
-24 25 153
-154 -152
-154 -153
152 153 154
-155 24
-155 25
-24 -25 155
-156 151
-156 -154
-151 154 156
-157 -151
-157 154
151 -154 157
-158 -156
-158 -157
156 157 158
-159 -151
-159 -154
151 154 159
-160 -155
-160 -159
155 159 160
-161 -25
-161 26
25 -26 161
-162 25
-162 -26
-25 26 162
-163 -161
-163 -162
161 162 163
-164 25
-164 26
-25 -26 164
-165 160
-165 -163
-160 163 165
-166 -160
-166 163
160 -163 166
-167 -165
-167 -166
165 166 167
-168 -160
-168 -163
160 163 168
-169 -164
-169 -168
164 168 169
-170 -26
-170 27
26 -27 170
-171 26
-171 -27
-26 27 171
-172 -170
-172 -171
170 171 172
-173 26
-173 27
-26 -27 173
-174 169
-174 -172
-169 172 174
-175 -169
-175 172
169 -172 175
-176 -174
-176 -175
174 175 176
-177 -169
-177 -172
169 172 177
-178 -173
-178 -177
173 177 178
-179 -27
-179 28
27 -28 179
-180 27
-180 -28
-27 28 180
-181 -179
-181 -180
179 180 181
-182 27
-182 28
-27 -28 182
-183 178
-183 -181
-178 181 183
-184 -178
-184 181
178 -181 184
-185 -183
-185 -184
183 184 185
-186 -178
-186 -181
178 181 186
-187 -182
-187 -186
182 186 187
-188 -28
-188 29
28 -29 188
-189 28
-189 -29
-28 29 189
-190 -188
-190 -189
188 189 190
-191 28
-191 29
-28 -29 191
-192 187
-192 -190
-187 190 192
-193 -187
-193 190
187 -190 193
-194 -192
-194 -193
192 193 194
-195 -187
-195 -190
187 190 195
-196 -191
-196 -195
191 195 196
-197 -29
-197 30
29 -30 197
-198 29
-198 -30
-29 30 198
-199 -197
-199 -198
197 198 199
-200 29
-200 30
-29 -30 200
-201 196
-201 -199
-196 199 201
-202 -196
-202 199
196 -199 202
-203 -201
-203 -202
201 202 203
-204 -196
-204 -199
196 199 204
-205 -200
-205 -204
200 204 205
-206 -30
-206 31
30 -31 206
-207 30
-207 -31
-30 31 207
-208 -206
-208 -207
206 207 208
-209 30
-209 31
-30 -31 209
-210 205
-210 -208
-205 208 210
-211 -205
-211 208
205 -208 211
-212 -210
-212 -211
210 211 212
-213 -205
-213 -208
205 208 213
-214 -209
-214 -213
209 213 214
-215 -31
-215 32
31 -32 215
-216 31
-216 -32
-31 32 216
-217 -215
-217 -216
215 216 217
-218 31
-218 32
-31 -32 218
-219 214
-219 -217
-214 217 219
-220 -214
-220 217
214 -217 220
-221 -219
-221 -220
219 220 221
-222 -214
-222 -217
214 217 222
-223 -218
-223 -222
218 222 223
-224 -32
-224 33
32 -33 224
-225 32
-225 -33
-32 33 225
-226 -224
-226 -225
224 225 226
-227 32
-227 33
-32 -33 227
-228 223
-228 -226
-223 226 228
-229 -223
-229 226
223 -226 229
-230 -228
-230 -229
228 229 230
-231 -223
-231 -226
223 226 231
-232 -227
-232 -231
227 231 232
-233 13
-233 -59
-13 59 233
-234 -13
-234 15
13 -15 234
-235 -233
-235 -234
233 234 235
-236 13
-236 -68
-13 68 236
-237 -13
-237 16
13 -16 237
-238 -236
-238 -237
236 237 238
-239 13
-239 -77
-13 77 239
-240 -13
-240 17
13 -17 240
-241 -239
-241 -240
239 240 241
-242 13
-242 -86
-13 86 242
-243 -13
-243 18
13 -18 243
-244 -242
-244 -243
242 243 244
-245 13
-245 -95
-13 95 245
-246 -13
-246 19
13 -19 246
-247 -245
-247 -246
245 246 247
-248 13
-248 -104
-13 104 248
-249 -13
-249 20
13 -20 249
-250 -248
-250 -249
248 249 250
-251 13
-251 -113
-13 113 251
-252 -13
-252 21
13 -21 252
-253 -251
-253 -252
251 252 253
-254 13
-254 -122
-13 122 254
-255 -13
-255 22
13 -22 255
-256 -254
-256 -255
254 255 256
-257 13
-257 -131
-13 131 257
-258 -13
-258 23
13 -23 258
-259 -257
-259 -258
257 258 259
-260 13
-260 -140
-13 140 260
-261 -13
-261 24
13 -24 261
-262 -260
-262 -261
260 261 262
-263 13
-263 -149
-13 149 263
-264 -13
-264 25
13 -25 264
-265 -263
-265 -264
263 264 265
-266 13
-266 -158
-13 158 266
-267 -13
-267 26
13 -26 267
-268 -266
-268 -267
266 267 268
-269 13
-269 -167
-13 167 269
-270 -13
-270 27
13 -27 270
-271 -269
-271 -270
269 270 271
-272 13
-272 -176
-13 176 272
-273 -13
-273 28
13 -28 273
-274 -272
-274 -273
272 273 274
-275 13
-275 -185
-13 185 275
-276 -13
-276 29
13 -29 276
-277 -275
-277 -276
275 276 277
-278 13
-278 -194
-13 194 278
-279 -13
-279 30
13 -30 279
-280 -278
-280 -279
278 279 280
-281 13
-281 -203
-13 203 281
-282 -13
-282 31
13 -31 282
-283 -281
-283 -282
281 282 283
-284 13
-284 -212
-13 212 284
-285 -13
-285 32
13 -32 285
-286 -284
-286 -285
284 285 286
-287 13
-287 -221
-13 221 287
-288 -13
-288 33
13 -33 288
-289 -287
-289 -288
287 288 289
-290 13
-290 -230
-13 230 290
-291 1
-291 52
-1 -52 291
-292 -52
-292 53
52 -53 292
-293 -291
-293 -292
291 292 293
-294 2
-294 52
-2 -52 294
-295 -52
-295 -235
52 235 295
-296 -294
-296 -295
294 295 296
-297 3
-297 52
-3 -52 297
-298 -52
-298 -238
52 238 298
-299 -297
-299 -298
297 298 299
-300 4
-300 52
-4 -52 300
-301 -52
-301 -241
52 241 301
-302 -300
-302 -301
300 301 302
-303 5
-303 52
-5 -52 303
-304 -52
-304 -244
52 244 304
-305 -303
-305 -304
303 304 305
-306 6
-306 52
-6 -52 306
-307 -52
-307 -247
52 247 307
-308 -306
-308 -307
306 307 308
-309 7
-309 52
-7 -52 309
-310 -52
-310 -250
52 250 310
-311 -309
-311 -310
309 310 311
-312 8
-312 52
-8 -52 312
-313 -52
-313 -253
52 253 313
-314 -312
-314 -313
312 313 314
-315 9
-315 52
-9 -52 315
-316 -52
-316 -256
52 256 316
-317 -315
-317 -316
315 316 317
-318 10
-318 52
-10 -52 318
-319 -52
-319 -259
52 259 319
-320 -318
-320 -319
318 319 320
-321 11
-321 52
-11 -52 321
-322 -52
-322 -262
52 262 322
-323 -321
-323 -322
321 322 323
-324 12
-324 52
-12 -52 324
-325 -52
-325 -265
52 265 325
-326 -324
-326 -325
324 325 326
-327 -52
-327 -268
52 268 327
-328 -52
-328 -271
52 271 328
-329 -52
-329 -274
52 274 329
-330 -52
-330 -277
52 277 330
-331 -52
-331 -280
52 280 331
-332 -52
-332 -283
52 283 332
-333 -52
-333 -286
52 286 333
-334 -52
-334 -289
52 289 334
-335 -52
-335 290
52 -290 335
-336 -33
-336 232
33 -232 336
-337 13
-337 -336
-13 336 337
337
